 &control
    title = ' Water 256 molecules ',
    calculation = 'cp',
    restart_mode = 'from_scratch', ! 'restart',
    ndr = 50,
    ndw = -1,
    nstep  = 2000,
    iprint = 10, 
    isave  = 100,
    tstress = .FALSE.,
    tprnfor = .FALSE.,
    dt    = 3.0d0,
    etot_conv_thr = 1.d-8,
    prefix = 'h2o',
    pseudo_dir='./',
    outdir='./out/',
    max_seconds = 21600.0
 /
 &system
    ibrav = 14, 
    celldm(1) = 37.30, 
    celldm(2) = 1.0, 
    celldm(3) = 1.0, 
    celldm(4) = 0.0, 
    celldm(5) = 0.0, 
    celldm(6) = 0.0, 
    nat = 768,
    ntyp = 2,
    nbnd = 1024,
    ecutwfc = 70.0,
    ecfixed = 68.0,
    qcutz = 68.0,
    q2sigma = 8.0,
 /
 &electrons
    emass = 400.d0,
    emass_cutoff = 2.5d0,
    orthogonalization = 'ortho',
    ortho_eps = 5.d-8,
    ortho_max = 20,
    electron_dynamics = 'sd',
 /
 &ions
    ion_dynamics = 'none',
    ion_radius(1) = 0.8d0,
    ion_radius(2) = 0.5d0,
 /
 &cell
    cell_dynamics = 'none',
 /
ATOMIC_SPECIES
 O  16.0d0   O.blyp-mt.UPF
 H  1.0079d0 H.blyp-vbc.UPF
ATOMIC_POSITIONS (crystal)
 O      0.1671   0.1929   0.0851
 O      0.3341   0.0386   0.0498
 O      0.2447   0.1376   0.4832
 O      0.4187   0.0083   0.4442
 O      0.2082   0.0703   0.2687
 O      0.4600   0.1373   0.3740
 O      0.4649   0.3379   0.0273
 O      0.2599   0.2887   0.1235
 O      0.4227   0.1154   0.1265
 O      0.3540   0.2256   0.0551
 O      0.3149   0.3370   0.2349
 O      0.3444   0.2214   0.4050
 O      0.4637   0.4430   0.1374
 O      0.3630   0.4786   0.2257
 O      0.4769   0.3149   0.3152
 O      0.0317   0.2099   0.1333
 O      0.0044   0.0704   0.2536
 O      0.4021   0.2188   0.2471
 O      0.3491   0.0946   0.2917
 O      0.1454   0.2599   0.2617
 O      0.0917   0.1986   0.3904
 O      0.1225   0.1012   0.1737
 O      0.1531   0.0787   0.3997
 O      0.2233   0.4194   0.1080
 O      0.0965   0.2869   0.0024
 O      0.0940   0.4833   0.0950
 O      0.0438   0.3333   0.2042
 O      0.1318   0.3738   0.3940
 O      0.2601   0.3165   0.3607
 O      0.1857   0.4381   0.2450
 O      0.3957   0.4145   0.3527
 O      0.0718   0.4950   0.4648
 O      0.1671   0.1929   0.5851
 O      0.3341   0.0386   0.5498
 O      0.2447   0.1376   0.9832
 O      0.4187   0.0083   0.9442
 O      0.2082   0.0703   0.7687
 O      0.4600   0.1373   0.8740
 O      0.4649   0.3379   0.5273
 O      0.2599   0.2887   0.6235
 O      0.4227   0.1154   0.6265
 O      0.3540   0.2256   0.5551
 O      0.3149   0.3370   0.7349
 O      0.3444   0.2214   0.9050
 O      0.4637   0.4430   0.6374
 O      0.3630   0.4786   0.7257
 O      0.4769   0.3149   0.8152
 O      0.0317   0.2099   0.6333
 O      0.0044   0.0704   0.7536
 O      0.4021   0.2188   0.7471
 O      0.3491   0.0946   0.7917
 O      0.1454   0.2599   0.7617
 O      0.0917   0.1986   0.8904
 O      0.1225   0.1012   0.6737
 O      0.1531   0.0787   0.8997
 O      0.2233   0.4194   0.6080
 O      0.0965   0.2869   0.5024
 O      0.0940   0.4833   0.5950
 O      0.0438   0.3333   0.7042
 O      0.1318   0.3738   0.8940
 O      0.2601   0.3165   0.8607
 O      0.1857   0.4381   0.7450
 O      0.3957   0.4145   0.8527
 O      0.0718   0.4950   0.9648
 O      0.1671   0.6929   0.0851
 O      0.3341   0.5386   0.0498
 O      0.2447   0.6376   0.4832
 O      0.4187   0.5083   0.4442
 O      0.2082   0.5703   0.2687
 O      0.4600   0.6373   0.3740
 O      0.4649   0.8379   0.0273
 O      0.2599   0.7887   0.1235
 O      0.4227   0.6154   0.1265
 O      0.3540   0.7256   0.0551
 O      0.3149   0.8370   0.2349
 O      0.3444   0.7214   0.4050
 O      0.4637   0.9430   0.1374
 O      0.3630   0.9786   0.2257
 O      0.4769   0.8149   0.3152
 O      0.0317   0.7099   0.1333
 O      0.0044   0.5704   0.2536
 O      0.4021   0.7188   0.2471
 O      0.3491   0.5946   0.2917
 O      0.1454   0.7599   0.2617
 O      0.0917   0.6986   0.3904
 O      0.1225   0.6012   0.1737
 O      0.1531   0.5787   0.3997
 O      0.2233   0.9194   0.1080
 O      0.0965   0.7869   0.0024
 O      0.0940   0.9833   0.0950
 O      0.0438   0.8333   0.2042
 O      0.1318   0.8738   0.3940
 O      0.2601   0.8165   0.3607
 O      0.1857   0.9381   0.2450
 O      0.3957   0.9145   0.3527
 O      0.0718   0.9950   0.4648
 O      0.1671   0.6929   0.5851
 O      0.3341   0.5386   0.5498
 O      0.2447   0.6376   0.9832
 O      0.4187   0.5083   0.9442
 O      0.2082   0.5703   0.7687
 O      0.4600   0.6373   0.8740
 O      0.4649   0.8379   0.5273
 O      0.2599   0.7887   0.6235
 O      0.4227   0.6154   0.6265
 O      0.3540   0.7256   0.5551
 O      0.3149   0.8370   0.7349
 O      0.3444   0.7214   0.9050
 O      0.4637   0.9430   0.6374
 O      0.3630   0.9786   0.7257
 O      0.4769   0.8149   0.8152
 O      0.0317   0.7099   0.6333
 O      0.0044   0.5704   0.7536
 O      0.4021   0.7188   0.7471
 O      0.3491   0.5946   0.7917
 O      0.1454   0.7599   0.7617
 O      0.0917   0.6986   0.8904
 O      0.1225   0.6012   0.6737
 O      0.1531   0.5787   0.8997
 O      0.2233   0.9194   0.6080
 O      0.0965   0.7869   0.5024
 O      0.0940   0.9833   0.5950
 O      0.0438   0.8333   0.7042
 O      0.1318   0.8738   0.8940
 O      0.2601   0.8165   0.8607
 O      0.1857   0.9381   0.7450
 O      0.3957   0.9145   0.8527
 O      0.0718   0.9950   0.9648
 O      0.6671   0.1929   0.0851
 O      0.8341   0.0386   0.0498
 O      0.7447   0.1376   0.4832
 O      0.9187   0.0083   0.4442
 O      0.7082   0.0703   0.2687
 O      0.9600   0.1373   0.3740
 O      0.9649   0.3379   0.0273
 O      0.7599   0.2887   0.1235
 O      0.9227   0.1154   0.1265
 O      0.8540   0.2256   0.0551
 O      0.8149   0.3370   0.2349
 O      0.8444   0.2214   0.4050
 O      0.9637   0.4430   0.1374
 O      0.8630   0.4786   0.2257
 O      0.9769   0.3149   0.3152
 O      0.5317   0.2099   0.1333
 O      0.5044   0.0704   0.2536
 O      0.9021   0.2188   0.2471
 O      0.8491   0.0946   0.2917
 O      0.6454   0.2599   0.2617
 O      0.5917   0.1986   0.3904
 O      0.6225   0.1012   0.1737
 O      0.6531   0.0787   0.3997
 O      0.7233   0.4194   0.1080
 O      0.5965   0.2869   0.0024
 O      0.5940   0.4833   0.0950
 O      0.5438   0.3333   0.2042
 O      0.6318   0.3738   0.3940
 O      0.7601   0.3165   0.3607
 O      0.6857   0.4381   0.2450
 O      0.8957   0.4145   0.3527
 O      0.5718   0.4950   0.4648
 O      0.6671   0.1929   0.5851
 O      0.8341   0.0386   0.5498
 O      0.7447   0.1376   0.9832
 O      0.9187   0.0083   0.9442
 O      0.7082   0.0703   0.7687
 O      0.9600   0.1373   0.8740
 O      0.9649   0.3379   0.5273
 O      0.7599   0.2887   0.6235
 O      0.9227   0.1154   0.6265
 O      0.8540   0.2256   0.5551
 O      0.8149   0.3370   0.7349
 O      0.8444   0.2214   0.9050
 O      0.9637   0.4430   0.6374
 O      0.8630   0.4786   0.7257
 O      0.9769   0.3149   0.8152
 O      0.5317   0.2099   0.6333
 O      0.5044   0.0704   0.7536
 O      0.9021   0.2188   0.7471
 O      0.8491   0.0946   0.7917
 O      0.6454   0.2599   0.7617
 O      0.5917   0.1986   0.8904
 O      0.6225   0.1012   0.6737
 O      0.6531   0.0787   0.8997
 O      0.7233   0.4194   0.6080
 O      0.5965   0.2869   0.5024
 O      0.5940   0.4833   0.5950
 O      0.5438   0.3333   0.7042
 O      0.6318   0.3738   0.8940
 O      0.7601   0.3165   0.8607
 O      0.6857   0.4381   0.7450
 O      0.8957   0.4145   0.8527
 O      0.5718   0.4950   0.9648
 O      0.6671   0.6929   0.0851
 O      0.8341   0.5386   0.0498
 O      0.7447   0.6376   0.4832
 O      0.9187   0.5083   0.4442
 O      0.7082   0.5703   0.2687
 O      0.9600   0.6373   0.3740
 O      0.9649   0.8379   0.0273
 O      0.7599   0.7887   0.1235
 O      0.9227   0.6154   0.1265
 O      0.8540   0.7256   0.0551
 O      0.8149   0.8370   0.2349
 O      0.8444   0.7214   0.4050
 O      0.9637   0.9430   0.1374
 O      0.8630   0.9786   0.2257
 O      0.9769   0.8149   0.3152
 O      0.5317   0.7099   0.1333
 O      0.5044   0.5704   0.2536
 O      0.9021   0.7188   0.2471
 O      0.8491   0.5946   0.2917
 O      0.6454   0.7599   0.2617
 O      0.5917   0.6986   0.3904
 O      0.6225   0.6012   0.1737
 O      0.6531   0.5787   0.3997
 O      0.7233   0.9194   0.1080
 O      0.5965   0.7869   0.0024
 O      0.5940   0.9833   0.0950
 O      0.5438   0.8333   0.2042
 O      0.6318   0.8738   0.3940
 O      0.7601   0.8165   0.3607
 O      0.6857   0.9381   0.2450
 O      0.8957   0.9145   0.3527
 O      0.5718   0.9950   0.4648
 O      0.6671   0.6929   0.5851
 O      0.8341   0.5386   0.5498
 O      0.7447   0.6376   0.9832
 O      0.9187   0.5083   0.9442
 O      0.7082   0.5703   0.7687
 O      0.9600   0.6373   0.8740
 O      0.9649   0.8379   0.5273
 O      0.7599   0.7887   0.6235
 O      0.9227   0.6154   0.6265
 O      0.8540   0.7256   0.5551
 O      0.8149   0.8370   0.7349
 O      0.8444   0.7214   0.9050
 O      0.9637   0.9430   0.6374
 O      0.8630   0.9786   0.7257
 O      0.9769   0.8149   0.8152
 O      0.5317   0.7099   0.6333
 O      0.5044   0.5704   0.7536
 O      0.9021   0.7188   0.7471
 O      0.8491   0.5946   0.7917
 O      0.6454   0.7599   0.7617
 O      0.5917   0.6986   0.8904
 O      0.6225   0.6012   0.6737
 O      0.6531   0.5787   0.8997
 O      0.7233   0.9194   0.6080
 O      0.5965   0.7869   0.5024
 O      0.5940   0.9833   0.5950
 O      0.5438   0.8333   0.7042
 O      0.6318   0.8738   0.8940
 O      0.7601   0.8165   0.8607
 O      0.6857   0.9381   0.7450
 O      0.8957   0.9145   0.8527
 O      0.5718   0.9950   0.9648
 H      0.1871   0.1680   0.0464
 H      0.1575   0.1613   0.1236
 H      0.4703   0.0902   0.2258
 H      0.3031   0.0043   0.0686
 H      0.3615   0.0177   0.0132
 H      0.2730   0.1001   0.4942
 H      0.2751   0.1635   0.4515
 H      0.4269   0.0524   0.4240
 H      0.2125   0.0216   0.2605
 H      0.1861   0.0771   0.3137
 H      0.3520   0.0243   0.2455
 H      0.4689   0.1095   0.3310
 H      0.4541   0.3669   0.0657
 H      0.2970   0.2702   0.0959
 H      0.2207   0.2570   0.1152
 H      0.3987   0.0811   0.0969
 H      0.4676   0.1245   0.1085
 H      0.3748   0.1897   0.0882
 H      0.3885   0.2631   0.0474
 H      0.3621   0.3244   0.2257
 H      0.2906   0.3078   0.2016
 H      0.3805   0.1996   0.3793
 H      0.3626   0.2275   0.4506
 H      0.4903   0.4059   0.1579
 H      0.4387   0.4617   0.1754
 H      0.4133   0.4716   0.4093
 H      0.3220   0.4527   0.2329
 H      0.4550   0.3541   0.3370
 H      0.0573   0.1737   0.1565
 H      0.0588   0.2296   0.0968
 H      0.0492   0.0932   0.2470
 H      0.4366   0.2452   0.2716
 H      0.4233   0.2024   0.2052
 H      0.2992   0.0925   0.2879
 H      0.3628   0.1433   0.2809
 H      0.1234   0.3005   0.2474
 H      0.1827   0.2756   0.2883
 H      0.1109   0.2239   0.3492
 H      0.1136   0.1514   0.3868
 H      0.0044   0.1586   0.3875
 H      0.1603   0.0878   0.2063
 H      0.1154   0.0625   0.1400
 H      0.1210   0.0513   0.4275
 H      0.1876   0.0982   0.4351
 H      0.1739   0.4279   0.0950
 H      0.2369   0.3709   0.1051
 H      0.0149   0.3313   0.0302
 H      0.1334   0.2680   0.0300
 H      0.0846   0.4941   0.0479
 H      0.0476   0.4689   0.1119
 H      0.0080   0.3244   0.2384
 H      0.0470   0.2869   0.1865
 H      0.1364   0.3498   0.4381
 H      0.1776   0.3740   0.3759
 H      0.2906   0.2788   0.3790
 H      0.2802   0.3308   0.3175
 H      0.0871   0.2570   0.4642
 H      0.1513   0.4029   0.2542
 H      0.2034   0.4286   0.1970
 H      0.3520   0.3982   0.3683
 H      0.3858   0.4304   0.3049
 H      0.0074   0.3021   0.3532
 H      0.0917   0.4556   0.4331
 H      0.0246   0.4947   0.4603
 H      0.1871   0.1680   0.5464
 H      0.1575   0.1613   0.6236
 H      0.4703   0.0902   0.7258
 H      0.3031   0.0043   0.5686
 H      0.3615   0.0177   0.5132
 H      0.2730   0.1001   0.9942
 H      0.2751   0.1635   0.9515
 H      0.4269   0.0524   0.9240
 H      0.2125   0.0216   0.7605
 H      0.1861   0.0771   0.8137
 H      0.3520   0.0243   0.7455
 H      0.4689   0.1095   0.8310
 H      0.4541   0.3669   0.5657
 H      0.2970   0.2702   0.5959
 H      0.2207   0.2570   0.6152
 H      0.3987   0.0811   0.5969
 H      0.4676   0.1245   0.6085
 H      0.3748   0.1897   0.5882
 H      0.3885   0.2631   0.5474
 H      0.3621   0.3244   0.7257
 H      0.2906   0.3078   0.7016
 H      0.3805   0.1996   0.8793
 H      0.3626   0.2275   0.9506
 H      0.4903   0.4059   0.6579
 H      0.4387   0.4617   0.6754
 H      0.4133   0.4716   0.9093
 H      0.3220   0.4527   0.7329
 H      0.4550   0.3541   0.8370
 H      0.0573   0.1737   0.6565
 H      0.0588   0.2296   0.5968
 H      0.0492   0.0932   0.7470
 H      0.4366   0.2452   0.7716
 H      0.4233   0.2024   0.7052
 H      0.2992   0.0925   0.7879
 H      0.3628   0.1433   0.7809
 H      0.1234   0.3005   0.7474
 H      0.1827   0.2756   0.7883
 H      0.1109   0.2239   0.8492
 H      0.1136   0.1514   0.8868
 H      0.0044   0.1586   0.8875
 H      0.1603   0.0878   0.7063
 H      0.1154   0.0625   0.6400
 H      0.1210   0.0513   0.9275
 H      0.1876   0.0982   0.9351
 H      0.1739   0.4279   0.5950
 H      0.2369   0.3709   0.6051
 H      0.0149   0.3313   0.5302
 H      0.1334   0.2680   0.5300
 H      0.0846   0.4941   0.5479
 H      0.0476   0.4689   0.6119
 H      0.0080   0.3244   0.7384
 H      0.0470   0.2869   0.6865
 H      0.1364   0.3498   0.9381
 H      0.1776   0.3740   0.8759
 H      0.2906   0.2788   0.8790
 H      0.2802   0.3308   0.8175
 H      0.0871   0.2570   0.9642
 H      0.1513   0.4029   0.7542
 H      0.2034   0.4286   0.6970
 H      0.3520   0.3982   0.8683
 H      0.3858   0.4304   0.8049
 H      0.0074   0.3021   0.8532
 H      0.0917   0.4556   0.9331
 H      0.0246   0.4947   0.9603
 H      0.1871   0.6680   0.0464
 H      0.1575   0.6613   0.1236
 H      0.4703   0.5902   0.2258
 H      0.3031   0.5043   0.0686
 H      0.3615   0.5177   0.0132
 H      0.2730   0.6001   0.4942
 H      0.2751   0.6635   0.4515
 H      0.4269   0.5524   0.4240
 H      0.2125   0.5216   0.2605
 H      0.1861   0.5771   0.3137
 H      0.3520   0.5243   0.2455
 H      0.4689   0.6095   0.3310
 H      0.4541   0.8669   0.0657
 H      0.2970   0.7702   0.0959
 H      0.2207   0.7570   0.1152
 H      0.3987   0.5811   0.0969
 H      0.4676   0.6245   0.1085
 H      0.3748   0.6897   0.0882
 H      0.3885   0.7631   0.0474
 H      0.3621   0.8244   0.2257
 H      0.2906   0.8078   0.2016
 H      0.3805   0.6996   0.3793
 H      0.3626   0.7275   0.4506
 H      0.4903   0.9059   0.1579
 H      0.4387   0.9617   0.1754
 H      0.4133   0.9716   0.4093
 H      0.3220   0.9527   0.2329
 H      0.4550   0.8541   0.3370
 H      0.0573   0.6737   0.1565
 H      0.0588   0.7296   0.0968
 H      0.0492   0.5932   0.2470
 H      0.4366   0.7452   0.2716
 H      0.4233   0.7024   0.2052
 H      0.2992   0.5925   0.2879
 H      0.3628   0.6433   0.2809
 H      0.1234   0.8005   0.2474
 H      0.1827   0.7756   0.2883
 H      0.1109   0.7239   0.3492
 H      0.1136   0.6514   0.3868
 H      0.0044   0.6586   0.3875
 H      0.1603   0.5878   0.2063
 H      0.1154   0.5625   0.1400
 H      0.1210   0.5513   0.4275
 H      0.1876   0.5982   0.4351
 H      0.1739   0.9279   0.0950
 H      0.2369   0.8709   0.1051
 H      0.0149   0.8313   0.0302
 H      0.1334   0.7680   0.0300
 H      0.0846   0.9941   0.0479
 H      0.0476   0.9689   0.1119
 H      0.0080   0.8244   0.2384
 H      0.0470   0.7869   0.1865
 H      0.1364   0.8498   0.4381
 H      0.1776   0.8740   0.3759
 H      0.2906   0.7788   0.3790
 H      0.2802   0.8308   0.3175
 H      0.0871   0.7570   0.4642
 H      0.1513   0.9029   0.2542
 H      0.2034   0.9286   0.1970
 H      0.3520   0.8982   0.3683
 H      0.3858   0.9304   0.3049
 H      0.0074   0.8021   0.3532
 H      0.0917   0.9556   0.4331
 H      0.0246   0.9947   0.4603
 H      0.1871   0.6680   0.5464
 H      0.1575   0.6613   0.6236
 H      0.4703   0.5902   0.7258
 H      0.3031   0.5043   0.5686
 H      0.3615   0.5177   0.5132
 H      0.2730   0.6001   0.9942
 H      0.2751   0.6635   0.9515
 H      0.4269   0.5524   0.9240
 H      0.2125   0.5216   0.7605
 H      0.1861   0.5771   0.8137
 H      0.3520   0.5243   0.7455
 H      0.4689   0.6095   0.8310
 H      0.4541   0.8669   0.5657
 H      0.2970   0.7702   0.5959
 H      0.2207   0.7570   0.6152
 H      0.3987   0.5811   0.5969
 H      0.4676   0.6245   0.6085
 H      0.3748   0.6897   0.5882
 H      0.3885   0.7631   0.5474
 H      0.3621   0.8244   0.7257
 H      0.2906   0.8078   0.7016
 H      0.3805   0.6996   0.8793
 H      0.3626   0.7275   0.9506
 H      0.4903   0.9059   0.6579
 H      0.4387   0.9617   0.6754
 H      0.4133   0.9716   0.9093
 H      0.3220   0.9527   0.7329
 H      0.4550   0.8541   0.8370
 H      0.0573   0.6737   0.6565
 H      0.0588   0.7296   0.5968
 H      0.0492   0.5932   0.7470
 H      0.4366   0.7452   0.7716
 H      0.4233   0.7024   0.7052
 H      0.2992   0.5925   0.7879
 H      0.3628   0.6433   0.7809
 H      0.1234   0.8005   0.7474
 H      0.1827   0.7756   0.7883
 H      0.1109   0.7239   0.8492
 H      0.1136   0.6514   0.8868
 H      0.0044   0.6586   0.8875
 H      0.1603   0.5878   0.7063
 H      0.1154   0.5625   0.6400
 H      0.1210   0.5513   0.9275
 H      0.1876   0.5982   0.9351
 H      0.1739   0.9279   0.5950
 H      0.2369   0.8709   0.6051
 H      0.0149   0.8313   0.5302
 H      0.1334   0.7680   0.5300
 H      0.0846   0.9941   0.5479
 H      0.0476   0.9689   0.6119
 H      0.0080   0.8244   0.7384
 H      0.0470   0.7869   0.6865
 H      0.1364   0.8498   0.9381
 H      0.1776   0.8740   0.8759
 H      0.2906   0.7788   0.8790
 H      0.2802   0.8308   0.8175
 H      0.0871   0.7570   0.9642
 H      0.1513   0.9029   0.7542
 H      0.2034   0.9286   0.6970
 H      0.3520   0.8982   0.8683
 H      0.3858   0.9304   0.8049
 H      0.0074   0.8021   0.8532
 H      0.0917   0.9556   0.9331
 H      0.0246   0.9947   0.9603
 H      0.6871   0.1680   0.0464
 H      0.6575   0.1613   0.1236
 H      0.9703   0.0902   0.2258
 H      0.8031   0.0043   0.0686
 H      0.8615   0.0177   0.0132
 H      0.7730   0.1001   0.4942
 H      0.7751   0.1635   0.4515
 H      0.9269   0.0524   0.4240
 H      0.7125   0.0216   0.2605
 H      0.6861   0.0771   0.3137
 H      0.8520   0.0243   0.2455
 H      0.9689   0.1095   0.3310
 H      0.9541   0.3669   0.0657
 H      0.7970   0.2702   0.0959
 H      0.7207   0.2570   0.1152
 H      0.8987   0.0811   0.0969
 H      0.9676   0.1245   0.1085
 H      0.8748   0.1897   0.0882
 H      0.8885   0.2631   0.0474
 H      0.8621   0.3244   0.2257
 H      0.7906   0.3078   0.2016
 H      0.8805   0.1996   0.3793
 H      0.8626   0.2275   0.4506
 H      0.9903   0.4059   0.1579
 H      0.9387   0.4617   0.1754
 H      0.9133   0.4716   0.4093
 H      0.8220   0.4527   0.2329
 H      0.9550   0.3541   0.3370
 H      0.5573   0.1737   0.1565
 H      0.5588   0.2296   0.0968
 H      0.5492   0.0932   0.2470
 H      0.9366   0.2452   0.2716
 H      0.9233   0.2024   0.2052
 H      0.7992   0.0925   0.2879
 H      0.8628   0.1433   0.2809
 H      0.6234   0.3005   0.2474
 H      0.6827   0.2756   0.2883
 H      0.6109   0.2239   0.3492
 H      0.6136   0.1514   0.3868
 H      0.5044   0.1586   0.3875
 H      0.6603   0.0878   0.2063
 H      0.6154   0.0625   0.1400
 H      0.6210   0.0513   0.4275
 H      0.6876   0.0982   0.4351
 H      0.6739   0.4279   0.0950
 H      0.7369   0.3709   0.1051
 H      0.5149   0.3313   0.0302
 H      0.6334   0.2680   0.0300
 H      0.5846   0.4941   0.0479
 H      0.5476   0.4689   0.1119
 H      0.5080   0.3244   0.2384
 H      0.5470   0.2869   0.1865
 H      0.6364   0.3498   0.4381
 H      0.6776   0.3740   0.3759
 H      0.7906   0.2788   0.3790
 H      0.7802   0.3308   0.3175
 H      0.5871   0.2570   0.4642
 H      0.6513   0.4029   0.2542
 H      0.7034   0.4286   0.1970
 H      0.8520   0.3982   0.3683
 H      0.8858   0.4304   0.3049
 H      0.5074   0.3021   0.3532
 H      0.5917   0.4556   0.4331
 H      0.5246   0.4947   0.4603
 H      0.6871   0.1680   0.5464
 H      0.6575   0.1613   0.6236
 H      0.9703   0.0902   0.7258
 H      0.8031   0.0043   0.5686
 H      0.8615   0.0177   0.5132
 H      0.7730   0.1001   0.9942
 H      0.7751   0.1635   0.9515
 H      0.9269   0.0524   0.9240
 H      0.7125   0.0216   0.7605
 H      0.6861   0.0771   0.8137
 H      0.8520   0.0243   0.7455
 H      0.9689   0.1095   0.8310
 H      0.9541   0.3669   0.5657
 H      0.7970   0.2702   0.5959
 H      0.7207   0.2570   0.6152
 H      0.8987   0.0811   0.5969
 H      0.9676   0.1245   0.6085
 H      0.8748   0.1897   0.5882
 H      0.8885   0.2631   0.5474
 H      0.8621   0.3244   0.7257
 H      0.7906   0.3078   0.7016
 H      0.8805   0.1996   0.8793
 H      0.8626   0.2275   0.9506
 H      0.9903   0.4059   0.6579
 H      0.9387   0.4617   0.6754
 H      0.9133   0.4716   0.9093
 H      0.8220   0.4527   0.7329
 H      0.9550   0.3541   0.8370
 H      0.5573   0.1737   0.6565
 H      0.5588   0.2296   0.5968
 H      0.5492   0.0932   0.7470
 H      0.9366   0.2452   0.7716
 H      0.9233   0.2024   0.7052
 H      0.7992   0.0925   0.7879
 H      0.8628   0.1433   0.7809
 H      0.6234   0.3005   0.7474
 H      0.6827   0.2756   0.7883
 H      0.6109   0.2239   0.8492
 H      0.6136   0.1514   0.8868
 H      0.5044   0.1586   0.8875
 H      0.6603   0.0878   0.7063
 H      0.6154   0.0625   0.6400
 H      0.6210   0.0513   0.9275
 H      0.6876   0.0982   0.9351
 H      0.6739   0.4279   0.5950
 H      0.7369   0.3709   0.6051
 H      0.5149   0.3313   0.5302
 H      0.6334   0.2680   0.5300
 H      0.5846   0.4941   0.5479
 H      0.5476   0.4689   0.6119
 H      0.5080   0.3244   0.7384
 H      0.5470   0.2869   0.6865
 H      0.6364   0.3498   0.9381
 H      0.6776   0.3740   0.8759
 H      0.7906   0.2788   0.8790
 H      0.7802   0.3308   0.8175
 H      0.5871   0.2570   0.9642
 H      0.6513   0.4029   0.7542
 H      0.7034   0.4286   0.6970
 H      0.8520   0.3982   0.8683
 H      0.8858   0.4304   0.8049
 H      0.5074   0.3021   0.8532
 H      0.5917   0.4556   0.9331
 H      0.5246   0.4947   0.9603
 H      0.6871   0.6680   0.0464
 H      0.6575   0.6613   0.1236
 H      0.9703   0.5902   0.2258
 H      0.8031   0.5043   0.0686
 H      0.8615   0.5177   0.0132
 H      0.7730   0.6001   0.4942
 H      0.7751   0.6635   0.4515
 H      0.9269   0.5524   0.4240
 H      0.7125   0.5216   0.2605
 H      0.6861   0.5771   0.3137
 H      0.8520   0.5243   0.2455
 H      0.9689   0.6095   0.3310
 H      0.9541   0.8669   0.0657
 H      0.7970   0.7702   0.0959
 H      0.7207   0.7570   0.1152
 H      0.8987   0.5811   0.0969
 H      0.9676   0.6245   0.1085
 H      0.8748   0.6897   0.0882
 H      0.8885   0.7631   0.0474
 H      0.8621   0.8244   0.2257
 H      0.7906   0.8078   0.2016
 H      0.8805   0.6996   0.3793
 H      0.8626   0.7275   0.4506
 H      0.9903   0.9059   0.1579
 H      0.9387   0.9617   0.1754
 H      0.9133   0.9716   0.4093
 H      0.8220   0.9527   0.2329
 H      0.9550   0.8541   0.3370
 H      0.5573   0.6737   0.1565
 H      0.5588   0.7296   0.0968
 H      0.5492   0.5932   0.2470
 H      0.9366   0.7452   0.2716
 H      0.9233   0.7024   0.2052
 H      0.7992   0.5925   0.2879
 H      0.8628   0.6433   0.2809
 H      0.6234   0.8005   0.2474
 H      0.6827   0.7756   0.2883
 H      0.6109   0.7239   0.3492
 H      0.6136   0.6514   0.3868
 H      0.5044   0.6586   0.3875
 H      0.6603   0.5878   0.2063
 H      0.6154   0.5625   0.1400
 H      0.6210   0.5513   0.4275
 H      0.6876   0.5982   0.4351
 H      0.6739   0.9279   0.0950
 H      0.7369   0.8709   0.1051
 H      0.5149   0.8313   0.0302
 H      0.6334   0.7680   0.0300
 H      0.5846   0.9941   0.0479
 H      0.5476   0.9689   0.1119
 H      0.5080   0.8244   0.2384
 H      0.5470   0.7869   0.1865
 H      0.6364   0.8498   0.4381
 H      0.6776   0.8740   0.3759
 H      0.7906   0.7788   0.3790
 H      0.7802   0.8308   0.3175
 H      0.5871   0.7570   0.4642
 H      0.6513   0.9029   0.2542
 H      0.7034   0.9286   0.1970
 H      0.8520   0.8982   0.3683
 H      0.8858   0.9304   0.3049
 H      0.5074   0.8021   0.3532
 H      0.5917   0.9556   0.4331
 H      0.5246   0.9947   0.4603
 H      0.6871   0.6680   0.5464
 H      0.6575   0.6613   0.6236
 H      0.9703   0.5902   0.7258
 H      0.8031   0.5043   0.5686
 H      0.8615   0.5177   0.5132
 H      0.7730   0.6001   0.9942
 H      0.7751   0.6635   0.9515
 H      0.9269   0.5524   0.9240
 H      0.7125   0.5216   0.7605
 H      0.6861   0.5771   0.8137
 H      0.8520   0.5243   0.7455
 H      0.9689   0.6095   0.8310
 H      0.9541   0.8669   0.5657
 H      0.7970   0.7702   0.5959
 H      0.7207   0.7570   0.6152
 H      0.8987   0.5811   0.5969
 H      0.9676   0.6245   0.6085
 H      0.8748   0.6897   0.5882
 H      0.8885   0.7631   0.5474
 H      0.8621   0.8244   0.7257
 H      0.7906   0.8078   0.7016
 H      0.8805   0.6996   0.8793
 H      0.8626   0.7275   0.9506
 H      0.9903   0.9059   0.6579
 H      0.9387   0.9617   0.6754
 H      0.9133   0.9716   0.9093
 H      0.8220   0.9527   0.7329
 H      0.9550   0.8541   0.8370
 H      0.5573   0.6737   0.6565
 H      0.5588   0.7296   0.5968
 H      0.5492   0.5932   0.7470
 H      0.9366   0.7452   0.7716
 H      0.9233   0.7024   0.7052
 H      0.7992   0.5925   0.7879
 H      0.8628   0.6433   0.7809
 H      0.6234   0.8005   0.7474
 H      0.6827   0.7756   0.7883
 H      0.6109   0.7239   0.8492
 H      0.6136   0.6514   0.8868
 H      0.5044   0.6586   0.8875
 H      0.6603   0.5878   0.7063
 H      0.6154   0.5625   0.6400
 H      0.6210   0.5513   0.9275
 H      0.6876   0.5982   0.9351
 H      0.6739   0.9279   0.5950
 H      0.7369   0.8709   0.6051
 H      0.5149   0.8313   0.5302
 H      0.6334   0.7680   0.5300
 H      0.5846   0.9941   0.5479
 H      0.5476   0.9689   0.6119
 H      0.5080   0.8244   0.7384
 H      0.5470   0.7869   0.6865
 H      0.6364   0.8498   0.9381
 H      0.6776   0.8740   0.8759
 H      0.7906   0.7788   0.8790
 H      0.7802   0.8308   0.8175
 H      0.5871   0.7570   0.9642
 H      0.6513   0.9029   0.7542
 H      0.7034   0.9286   0.6970
 H      0.8520   0.8982   0.8683
 H      0.8858   0.9304   0.8049
 H      0.5074   0.8021   0.8532
 H      0.5917   0.9556   0.9331
 H      0.5246   0.9947   0.9603
